rc101_3
0 56 25 27 29 54 24 23 53 26 28 30 82 63 80 102 64 92 79 91 57 62 88 71 70 95 1 6 8 10 50 9 51 13 12 84 78 52 22 21 20 18 14 16 15 17 19 83 65 58 103 93 60 105 75 7 11 1 47 49 48 45 41 40 42 43 44 46 77 76 98 99 101 59 86 66 73 74 87 104 69 61 0